% Logging successfully configured
%%%mzn-stat: initTime=0.003354838
%%%mzn-stat: objective=484
%%%mzn-stat: nodes=119
%%%mzn-stat: restarts=0
%%%mzn-stat: peakDepth=117
%%%mzn-stat: solveTime=0.001062573
%%%mzn-stat: variables=298
%%%mzn-stat: propagators=194
%%%mzn-stat: failures=2
%%%mzn-stat: propagations=694
%%%mzn-stat: nogoods=2
%%%mzn-stat: numAtomicConstraintsPropagated=0
%%%mzn-stat: circuitNumber1PropagationsTotal=35
%%%mzn-stat: circuitNumber1CircuitConflicts=2
%%%mzn-stat: circuitNumber1AlldiffConflicts=0
%%%mzn-stat: circuitNumber1TotalFixedEdgesAtConflict=34
%%%mzn-stat: circuitNumber1NumberOfConflicts=2
%%%mzn-stat: circuitNumber1GacPrunings=72
%%%mzn-stat: circuitNumber1PropagationsThatGacPruned=17
%%%mzn-stat: circuitNumber1TotalPruningHallSetSize=134
%%%mzn-stat: circuitNumber1NumberOfPruningExplanations=72
%%%mzn-stat: circuitNumber1MaxPruningHallSetSize=11
%%%mzn-stat: circuitNumber1TotalSccSizeAtPruning=47
%%%mzn-stat: circuitNumber1NumberOfSccPruningCalls=17
%%%mzn-stat: circuitNumber1TotalVarsInvolvedInPruning=62
%%%mzn-stat: circuitNumber1MaxValuesPrunedFromSingleVar=4
%%%mzn-stat: circuitNumber1HallCircuitChecks=38
%%%mzn-stat: circuitNumber1HallCircuitPrunings=5
%%%mzn-stat: circuitNumber1CircuitPreventPrunings=10
%%%mzn-stat: AverageConflictSize=17
%%%mzn-stat: NumUnitNogoodsLearned=0
%%%mzn-stat: AverageLearnedNogoodLength=10.5
%%%mzn-stat: AverageBacktrackAmount=0
%%%mzn-stat: AverageLbd=10.5
%%%mzn-stat: 2AutonomousSearchNumBackupCalled=104
%%%mzn-stat: 2AutonomousSearchNumPredicatesRemoved=0
%%%mzn-stat: 2AutonomousSearchNumCalls=105
%%%mzn-stat: 2AutonomousSearchNumPredicatesAdded=89
%%%mzn-stat: 2AutonomousSearchAverageSizeOfHeap=0.8476190476190476
%%%mzn-stat: 2AutonomousSearchNumAssignedPredicatesEncountered=89
%%%mzn-stat-end
maxleg = 484;
succ = array1d(1..20,[3, 5, 11, 12, 1, 2, 6, 13, 7, 9, 19, 15, 10, 4, 16, 8, 18, 20, 17, 14]);
% time elapsed: 0.31 s
----------
%%%mzn-stat: initTime=0.003354838
%%%mzn-stat: objective=466
%%%mzn-stat: nodes=228
%%%mzn-stat: restarts=0
%%%mzn-stat: peakDepth=117
%%%mzn-stat: solveTime=0.001846344
%%%mzn-stat: variables=298
%%%mzn-stat: propagators=194
%%%mzn-stat: failures=3
%%%mzn-stat: propagations=1065
%%%mzn-stat: nogoods=3
%%%mzn-stat: numAtomicConstraintsPropagated=0
%%%mzn-stat: circuitNumber1PropagationsTotal=65
%%%mzn-stat: circuitNumber1CircuitConflicts=3
%%%mzn-stat: circuitNumber1AlldiffConflicts=0
%%%mzn-stat: circuitNumber1TotalFixedEdgesAtConflict=46
%%%mzn-stat: circuitNumber1NumberOfConflicts=3
%%%mzn-stat: circuitNumber1GacPrunings=138
%%%mzn-stat: circuitNumber1PropagationsThatGacPruned=32
%%%mzn-stat: circuitNumber1TotalPruningHallSetSize=308
%%%mzn-stat: circuitNumber1NumberOfPruningExplanations=138
%%%mzn-stat: circuitNumber1MaxPruningHallSetSize=12
%%%mzn-stat: circuitNumber1TotalSccSizeAtPruning=112
%%%mzn-stat: circuitNumber1NumberOfSccPruningCalls=32
%%%mzn-stat: circuitNumber1TotalVarsInvolvedInPruning=115
%%%mzn-stat: circuitNumber1MaxValuesPrunedFromSingleVar=4
%%%mzn-stat: circuitNumber1HallCircuitChecks=72
%%%mzn-stat: circuitNumber1HallCircuitPrunings=11
%%%mzn-stat: circuitNumber1CircuitPreventPrunings=20
%%%mzn-stat: AverageConflictSize=14.333333333333334
%%%mzn-stat: NumUnitNogoodsLearned=0
%%%mzn-stat: AverageLearnedNogoodLength=13.333333333333334
%%%mzn-stat: AverageBacktrackAmount=0
%%%mzn-stat: AverageLbd=9.666666666666666
%%%mzn-stat: 2AutonomousSearchNumBackupCalled=200
%%%mzn-stat: 2AutonomousSearchNumPredicatesRemoved=0
%%%mzn-stat: 2AutonomousSearchNumCalls=202
%%%mzn-stat: 2AutonomousSearchNumPredicatesAdded=128
%%%mzn-stat: 2AutonomousSearchAverageSizeOfHeap=0.995049504950495
%%%mzn-stat: 2AutonomousSearchNumAssignedPredicatesEncountered=201
%%%mzn-stat-end
maxleg = 466;
succ = array1d(1..20,[3, 5, 11, 12, 1, 2, 9, 13, 6, 7, 19, 15, 10, 4, 16, 8, 18, 20, 17, 14]);
% time elapsed: 0.31 s
----------
%%%mzn-stat: initTime=0.003354838
%%%mzn-stat: objective=435
%%%mzn-stat: nodes=339
%%%mzn-stat: restarts=0
%%%mzn-stat: peakDepth=117
%%%mzn-stat: solveTime=0.003258099
%%%mzn-stat: variables=298
%%%mzn-stat: propagators=194
%%%mzn-stat: failures=8
%%%mzn-stat: propagations=1551
%%%mzn-stat: nogoods=8
%%%mzn-stat: numAtomicConstraintsPropagated=0
%%%mzn-stat: circuitNumber1PropagationsTotal=109
%%%mzn-stat: circuitNumber1CircuitConflicts=8
%%%mzn-stat: circuitNumber1AlldiffConflicts=0
%%%mzn-stat: circuitNumber1TotalFixedEdgesAtConflict=100
%%%mzn-stat: circuitNumber1NumberOfConflicts=8
%%%mzn-stat: circuitNumber1GacPrunings=236
%%%mzn-stat: circuitNumber1PropagationsThatGacPruned=52
%%%mzn-stat: circuitNumber1TotalPruningHallSetSize=715
%%%mzn-stat: circuitNumber1NumberOfPruningExplanations=236
%%%mzn-stat: circuitNumber1MaxPruningHallSetSize=13
%%%mzn-stat: circuitNumber1TotalSccSizeAtPruning=260
%%%mzn-stat: circuitNumber1NumberOfSccPruningCalls=52
%%%mzn-stat: circuitNumber1TotalVarsInvolvedInPruning=186
%%%mzn-stat: circuitNumber1MaxValuesPrunedFromSingleVar=4
%%%mzn-stat: circuitNumber1HallCircuitChecks=124
%%%mzn-stat: circuitNumber1HallCircuitPrunings=17
%%%mzn-stat: circuitNumber1CircuitPreventPrunings=36
%%%mzn-stat: AverageConflictSize=9.875
%%%mzn-stat: NumUnitNogoodsLearned=0
%%%mzn-stat: AverageLearnedNogoodLength=19.75
%%%mzn-stat: AverageBacktrackAmount=0
%%%mzn-stat: AverageLbd=8
%%%mzn-stat: 2AutonomousSearchNumBackupCalled=294
%%%mzn-stat: 2AutonomousSearchNumPredicatesRemoved=0
%%%mzn-stat: 2AutonomousSearchNumCalls=297
%%%mzn-stat: 2AutonomousSearchNumPredicatesAdded=217
%%%mzn-stat: 2AutonomousSearchAverageSizeOfHeap=1.2323232323232323
%%%mzn-stat: 2AutonomousSearchNumAssignedPredicatesEncountered=366
%%%mzn-stat-end
maxleg = 435;
succ = array1d(1..20,[3, 5, 11, 12, 1, 10, 9, 6, 2, 7, 19, 13, 15, 4, 16, 8, 18, 20, 17, 14]);
% time elapsed: 0.31 s
----------
%%%mzn-stat: initTime=0.003354838
%%%mzn-stat: objective=428
%%%mzn-stat: nodes=537
%%%mzn-stat: restarts=0
%%%mzn-stat: peakDepth=117
%%%mzn-stat: solveTime=0.016923811
%%%mzn-stat: variables=298
%%%mzn-stat: propagators=194
%%%mzn-stat: failures=98
%%%mzn-stat: propagations=4394
%%%mzn-stat: nogoods=98
%%%mzn-stat: numAtomicConstraintsPropagated=0
%%%mzn-stat: circuitNumber1PropagationsTotal=510
%%%mzn-stat: circuitNumber1CircuitConflicts=80
%%%mzn-stat: circuitNumber1AlldiffConflicts=0
%%%mzn-stat: circuitNumber1TotalFixedEdgesAtConflict=1297
%%%mzn-stat: circuitNumber1NumberOfConflicts=80
%%%mzn-stat: circuitNumber1GacPrunings=949
%%%mzn-stat: circuitNumber1PropagationsThatGacPruned=264
%%%mzn-stat: circuitNumber1TotalPruningHallSetSize=2683
%%%mzn-stat: circuitNumber1NumberOfPruningExplanations=949
%%%mzn-stat: circuitNumber1MaxPruningHallSetSize=17
%%%mzn-stat: circuitNumber1TotalSccSizeAtPruning=1169
%%%mzn-stat: circuitNumber1NumberOfSccPruningCalls=264
%%%mzn-stat: circuitNumber1TotalVarsInvolvedInPruning=785
%%%mzn-stat: circuitNumber1MaxValuesPrunedFromSingleVar=5
%%%mzn-stat: circuitNumber1HallCircuitChecks=614
%%%mzn-stat: circuitNumber1HallCircuitPrunings=94
%%%mzn-stat: circuitNumber1CircuitPreventPrunings=234
%%%mzn-stat: AverageConflictSize=5.928571428571429
%%%mzn-stat: NumUnitNogoodsLearned=0
%%%mzn-stat: AverageLearnedNogoodLength=15.081632653061224
%%%mzn-stat: AverageBacktrackAmount=0
%%%mzn-stat: AverageLbd=5.6938775510204085
%%%mzn-stat: 2AutonomousSearchNumBackupCalled=388
%%%mzn-stat: 2AutonomousSearchNumPredicatesRemoved=0
%%%mzn-stat: 2AutonomousSearchNumCalls=392
%%%mzn-stat: 2AutonomousSearchNumPredicatesAdded=650
%%%mzn-stat: 2AutonomousSearchAverageSizeOfHeap=2.114795918367347
%%%mzn-stat: 2AutonomousSearchNumAssignedPredicatesEncountered=829
%%%mzn-stat-end
maxleg = 428;
succ = array1d(1..20,[3, 5, 17, 12, 9, 10, 2, 6, 19, 7, 1, 13, 15, 4, 16, 8, 18, 20, 11, 14]);
% time elapsed: 0.31 s
----------
==========
% time elapsed: 0.31 s
%%%mzn-stat: initTime=0.003354838
%%%mzn-stat: objective=428
%%%mzn-stat: nodes=559
%%%mzn-stat: restarts=0
%%%mzn-stat: peakDepth=117
%%%mzn-stat: solveTime=0.019811497
%%%mzn-stat: variables=298
%%%mzn-stat: propagators=194
%%%mzn-stat: failures=111
%%%mzn-stat: propagations=4925
%%%mzn-stat: nogoods=111
%%%mzn-stat: numAtomicConstraintsPropagated=0
%%%mzn-stat: circuitNumber1PropagationsTotal=586
%%%mzn-stat: circuitNumber1CircuitConflicts=90
%%%mzn-stat: circuitNumber1AlldiffConflicts=1
%%%mzn-stat: circuitNumber1TotalFixedEdgesAtConflict=1398
%%%mzn-stat: circuitNumber1NumberOfConflicts=91
%%%mzn-stat: circuitNumber1GacPrunings=1200
%%%mzn-stat: circuitNumber1PropagationsThatGacPruned=299
%%%mzn-stat: circuitNumber1TotalPruningHallSetSize=4098
%%%mzn-stat: circuitNumber1NumberOfPruningExplanations=1200
%%%mzn-stat: circuitNumber1MaxPruningHallSetSize=19
%%%mzn-stat: circuitNumber1TotalSccSizeAtPruning=1618
%%%mzn-stat: circuitNumber1NumberOfSccPruningCalls=299
%%%mzn-stat: circuitNumber1TotalVarsInvolvedInPruning=956
%%%mzn-stat: circuitNumber1MaxValuesPrunedFromSingleVar=6
%%%mzn-stat: circuitNumber1HallCircuitChecks=691
%%%mzn-stat: circuitNumber1HallCircuitPrunings=100
%%%mzn-stat: circuitNumber1CircuitPreventPrunings=270
%%%mzn-stat: AverageConflictSize=5.666666666666667
%%%mzn-stat: NumUnitNogoodsLearned=1
%%%mzn-stat: AverageLearnedNogoodLength=15.198198198198199
%%%mzn-stat: AverageBacktrackAmount=0
%%%mzn-stat: AverageLbd=5.423423423423423
%%%mzn-stat: 2AutonomousSearchNumBackupCalled=388
%%%mzn-stat: 2AutonomousSearchNumPredicatesRemoved=0
%%%mzn-stat: 2AutonomousSearchNumCalls=392
%%%mzn-stat: 2AutonomousSearchNumPredicatesAdded=922
%%%mzn-stat: 2AutonomousSearchAverageSizeOfHeap=2.114795918367347
%%%mzn-stat: 2AutonomousSearchNumAssignedPredicatesEncountered=829
%%%mzn-stat-end
